data/CVRPLIB/Vrp-Set-XML100/instances/XML100_1216_18.vrp
NAME : XML100_1216_18
COMMENT : Generated by Queiroga, Sadykov, Uchoa, and Vidal (2021)
TYPE : CVRP
DIMENSION : 101
EDGE_WEIGHT_TYPE : EUC_2D
CAPACITY : 47
NODE_COORD_SECTION
1    238  156 
2    493  780 
3    252  445 
4    322  712 
5    176  707 
6    495  490 
7    776  222 
8    843  149 
9    49   752 
10   656  204 
11   308  760 
12   699  216 
13   106  816 
14   576  679 
15   37   597 
16   720  79  
17   721  221 
18   295  582 
19   479  646 
20   584  256 
21   129  680 
22   145  759 
23   115  683 
24   134  477 
25   375  689 
26   753  148 
27   784  129 
28   117  746 
29   400  653 
30   481  632 
31   212  385 
32   182  455 
33   15   334 
34   617  660 
35   780  346 
36   139  745 
37   724  103 
38   637  537 
39   482  730 
40   403  430 
41   644  153 
42   452  696 
43   161  650 
44   20   804 
45   417  602 
46   604  407 
47   403  641 
48   638  653 
49   180  432 
50   749  705 
51   84   631 
52   566  603 
53   530  549 
54   539  449 
55   125  643 
56   857  259 
57   761  234 
58   180  726 
59   211  422 
60   200  480 
61   521  668 
62   370  734 
63   164  380 
64   743  215 
65   849  324 
66   464  522 
67   534  621 
68   855  273 
69   302  403 
70   125  639 
71   791  151 
72   168  575 
73   195  328 
74   126  689 
75   53   767 
76   823  513 
77   192  512 
78   173  610 
79   219  315 
80   289  307 
81   83   620 
82   167  714 
83   716  285 
84   542  653 
85   178  534 
86   489  705 
87   765  258 
88   833  105 
89   135  795 
90   262  322 
91   687  260 
92   576  606 
93   729  279 
94   543  619 
95   767  349 
96   141  707 
97   332  730 
98   774  121 
99   760  260 
100  241  793 
101  602  562 
DEMAND_SECTION
1    0   
2    1   
3    1   
4    1   
5    1   
6    1   
7    1   
8    1   
9    1   
10   1   
11   1   
12   1   
13   1   
14   1   
15   1   
16   1   
17   1   
18   1   
19   1   
20   1   
21   1   
22   1   
23   1   
24   1   
25   1   
26   1   
27   1   
28   1   
29   1   
30   1   
31   1   
32   1   
33   1   
34   1   
35   1   
36   1   
37   1   
38   1   
39   1   
40   1   
41   1   
42   1   
43   1   
44   1   
45   1   
46   1   
47   1   
48   1   
49   1   
50   1   
51   1   
52   1   
53   1   
54   1   
55   1   
56   1   
57   1   
58   1   
59   1   
60   1   
61   1   
62   1   
63   1   
64   1   
65   1   
66   1   
67   1   
68   1   
69   1   
70   1   
71   1   
72   1   
73   1   
74   1   
75   1   
76   1   
77   1   
78   1   
79   1   
80   1   
81   1   
82   1   
83   1   
84   1   
85   1   
86   1   
87   1   
88   1   
89   1   
90   1   
91   1   
92   1   
93   1   
94   1   
95   1   
96   1   
97   1   
98   1   
99   1   
100  1   
101  1   
DEPOT_SECTION
1
-1
EOF
