data/CVRPLIB/Vrp-Set-XML100/solutions/XML100_1216_18.sol
Route #1: 79 68 39 65 5 53 45 37 100 52 51 91 93 66 83 60 13 33 47 49 75 94 34 64 67 55 7 87 70 26 97 25 36 15 40 9 11 16 63 6 56 86 98 92 82 90 19
Route #2: 78 30 58 48 62 72
Route #3: 89 2 17 44 29 18 85 38 1 41 46 28 24 61 96 3 10 99 88 12 43 74 8 27 35 21 57 4 81 95 73 20 22 50 14 80 69 54 42 77 71 84 76 59 31 23 32
Cost 6470
